Route #1: 1 62 21 47 27 7 4 1 
Route #2: 1 28 64 42 24 49 16 63 1 
Route #3: 1 1 22 36 30 2 55 56 23 1 
Route #4: 1 43 41 5 29 13 45 33 1 
Route #5: 1 61 35 10 12 40 3 6 1 
Route #6: 1 51 17 39 9 25 50 44 1 
Route #7: 1 34 52 57 15 37 20 60 48 1 
Route #8: 1 32 26 8 59 54 46 1 
Route #9: 1 18 58 38 11 14 1 
Route #10: 1 19 53 31 1 

Cost 1358.5
Time 0.9051


 * Another infos *

 Iterations: 65 Time: 0.9051 sec - 0.0151 min - 0.0003 horas
0.0000 h 0.0151 min
Problem dimension: 65
